data/benchmarks/bayes/75-10-5-q.cnf
p cnf 460 451
c weights 0.0827345 0.9172655 1 1 1 1 1 1 1 1 1 1 1 1 1 1 1 1 1 1 1 1 1 1 1 1 1 1 1 1 1 1 1 1 1 1 1 1 1 1 1 1 1 1 1 1 1 1 1 1 1 1 1 1 1 1 1 1 1 1 1 1 1 1 1 1 1 1 1 1 1 1 1 1 1 1 1 1 1 1 1 1 1 1 1 1 1 1 1 1 1 1 1 1 1 1 1 1 1 1 1 1 1 1 1 1 1 1 1 1 1 1 1 1 1 1 1 1 1 1 1 1 1 1 1 1 1 1 1 1 1 1 1 1 1 1 1 1 1 1 1 1 1 1 1 1 1 1 1 1 1 1 1 1 1 1 1 1 1 1 1 1 1 1 1 1 1 1 1 1 1 1 1 1 1 1 1 1 1 1 1 1 1 1 1 1 1 1 1 1 1 1 1 1 1 1 1 1 1 1 0.5 0.5 0.5 0.5 0.596025 0.403975 0.938586 0.06141399999999997 0.399773 0.6002270000000001 0.131119 0.868881 0.497476 0.502524 0.75223 0.24777000000000005 0.442945 0.5570550000000001 0.948239 0.051760999999999946 0.363511 0.6364890000000001 0.714072 0.28592799999999996 0.5 0.5 0.5 0.5 0.5 0.5 0.5 0.5 0.5 0.5 0.5 0.5 0.5 0.5 0.5 0.5 0.5 0.5 0.5 0.5 0.5 0.5 0.5 0.5 0.5 0.5 0.5 0.5 0.5 0.5 0.5 0.5 0.5 0.5 0.5 0.5 0.5 0.5 0.5 0.5 0.5 0.5 0.5 0.5 0.5 0.5 0.5 0.5 0.49994 0.50006 0.0618689 0.9381311 0.383937 0.616063 0.481492 0.518508 0.5 0.5 0.5 0.5 0.5 0.5 0.5 0.5 0.0698795 0.9301205 0.879948 0.12005200000000005 0.378308 0.621692 0.207842 0.792158 0.5 0.5 0.5 0.5 0.5 0.5 0.5 0.5 0.5 0.5 0.5 0.5 0.5 0.5 0.5 0.5 0.5 0.5 0.5 0.5 0.5 0.5 0.5 0.5 0.5 0.5 0.5 0.5 0.5 0.5 0.5 0.5 0.5 0.5 0.5 0.5 0.213899 0.7861009999999999 0.582277 0.41772299999999996 0.0599079 0.9400921 0.191053 0.808947 0.5 0.5 0.5 0.5 0.5 0.5 0.5 0.5 0.5 0.5 0.5 0.5 0.5 0.5 0.5 0.5 0.5 0.5 0.5 0.5 0.5 0.5 0.5 0.5 0.270521 0.729479 0.146507 0.8534930000000001 0.196629 0.8033710000000001 0.114501 0.885499 0.5 0.5 0.5 0.5 0.5 0.5 0.5 0.5 0.5 0.5 0.5 0.5 0.5 0.5 0.5 0.5 0.5 0.5 0.5 0.5 0.5 0.5 0.5 0.5 0.5 0.5 0.5 0.5 0.5 0.5 0.5 0.5 0.5 0.5 0.5 0.5 0.955056 0.044943999999999984 0.354555 0.645445 0.791327 0.208673 0.921474 0.07852599999999998 0.5 0.5 0.5 0.5 0.5 0.5 0.5 0.5 0.5 0.5 0.5 0.5 0.5 0.5 0.5 0.5 0.535628 0.464372 0.837398 0.16260200000000002 0.214274 0.785726 0.0790039 0.9209961 0.5 0.5 0.5 0.5 0.5 0.5 0.5 0.5 0.5 0.5 0.5 0.5 0.5 0.5 0.5 0.5 0.5 0.5 0.5 0.5 0.5 0.5 0.5 0.5 0.5 0.5 0.5 0.5 0.5 0.5 0.5 0.5 0.5 0.5 0.5 0.5 0.5 0.5 0.5 0.5 0.5 0.5 0.5 0.5 0.5 0.5 0.5 0.5 0.5 0.5 0.5 0.5 0.5 0.5 0.5 0.5 0.5 0.5 0.5 0.5 0.5 0.5 0.5 0.5 0.5 0.5 0.5 0.5 0.5 0.5 0.5 0.5 0.5 0.5 0.5 0.5 0.5 0.5 0.5 0.5 0.5 0.5 0.5 0.5 0.0686078 0.9313922 0.486854 0.513146 0.538641 0.46135899999999996 0.305123 0.694877 0.5 0.5 0.5 0.5 0.5 0.5 0.5 0.5 0.136622 0.863378 0.225615 0.774385 0.753794 0.24620600000000004 0.344803 0.655197 0.153511 0.846489 0.540603 0.45939700000000006 0.5 0.5 0.5 0.5 0.5 0.5 0.5 0.5 0.5 0.5 0.5 0.5 0.5 0.5 0.5 0.5 0.5 0.5 0.5 0.5 0.5 0.5 0.5 0.5 0.5 0.5 0.5 0.5 0.5 0.5 0.5 0.5 0.5 0.5 0.5 0.5 0.5 0.5 0.5 0.5 0.280823 0.719177 0.0996685 0.9003315000000001 0.175728 0.824272 0.434335 0.565665 0.5 0.5 0.5 0.5 0.5 0.5 0.5 0.5 0.5 0.5 0.5 0.5 0.5 0.5 0.5 0.5 0.5 0.5 0.5 0.5 0.5 0.5 0.5 0.5 0.5 0.5 0.5 0.5 0.0538559 0.9461441 0.193266 0.8067340000000001 0.433883 0.566117 0.263108 0.736892 0.887531 0.11246900000000004 0.608983 0.39101699999999995 0.629502 0.370498 0.168354 0.831646 0.5 0.5 0.5 0.5 0.5 0.5 0.5 0.5 0.0664572 0.9335428 0.569673 0.430327 0.962083 0.03791699999999998 0.502326 0.49767399999999995 0.5 0.5 0.5 0.5 0.5 0.5 0.5 0.5 0.5 0.5 0.5 0.5 0.5 0.5 0.5 0.5 0.5 0.5 0.5 0.5 0.5 0.5 0.5 0.5 0.5 0.5 0.5 0.5 0.5 0.5 0.5 0.5 0.5 0.5 0.5 0.5 0.5 0.5 0.5 0.5 0.5 0.5 0.5 0.5 0.6087 0.3913 0.468216 0.531784 0.564599 0.43540100000000004 0.704946 0.29505400000000004 0.5 0.5 0.5 0.5 0.5 0.5 0.5 0.5 0.5 0.5 0.5 0.5 0.5 0.5 0.5 0.5 0.0817251 0.9182749 0.706913 0.293087 0.0145225 0.9854775 0.664309 0.33569099999999996 0.5 0.5 0.5 0.5 0.5 0.5 0.5 0.5 0.660547 0.339453 0.306326 0.693674 0.173857 0.826143 0.307164 0.692836 0.5 0.5 0.5 0.5 0.5 0.5 0.5 0.5 0.5 0.5 0.5 0.5 0.5 0.5 0.5 0.5 0.117742 0.882258 0.907349 0.09265100000000004 0.5 0.5 0.5 0.5 0.5 0.5 0.5 0.5 0.126011 0.873989 0.559899 0.44010099999999996 0.794586 0.20541399999999999 0.0107695 0.9892305 0.688299 0.311701 0.671317 0.32868299999999995 0.273119 0.726881 0.862156 0.13784399999999997 0.545335 0.454665 0.885832 0.11416800000000005 0.894345 0.10565500000000005 0.285768 0.714232 0.5 0.5 0.5 0.5 0.5 0.5 0.5 0.5 0.5 0.5 0.5 0.5 0.5 0.5 0.5 0.5 0.5 0.5 0.5 0.5 0.5 0.5 0.5 0.5 0.5 0.5 0.5 0.5 0.5 0.5 0.5 0.5 0.5 0.5 0.5 0.5 0.5 0.5 0.5 0.5 0.5 0.5 0.5 0.5 0.5 0.5 0.5 0.5 0.5 0.5 0.5 0.5 0.5 0.5 0.5 0.5 0.5 0.5 0.5 0.5 0.5 0.5 0.5 0.5 0.5 0.5 0.5 0.5 0.5 0.5 0.5 0.5 0.5 0.5 0.5 0.5 0.717633 0.28236700000000003 0.542936 0.457064 0.384281 0.615719 0.101804 0.898196 0.5 0.5 0.5 0.5 0.5 0.5 0.5 0.5 0.5 0.5 0.5 0.5 0.5 0.5 0.5 0.5 0.5 0.5 0.5 0.5 0.5 0.5 0.5 0.5 0.5 0.5 0.5 0.5 0.5 0.5 0.5 0.5
-1 2 0
1 -2 0
-2 -103 3 0
-2 103 -3 0
2 -104 3 0
2 104 -3 0
-3 -105 4 0
-3 105 -4 0
3 -106 4 0
3 106 -4 0
-4 -107 5 0
-4 107 -5 0
4 -108 5 0
4 108 -5 0
-5 -109 6 0
-5 109 -6 0
5 -110 6 0
5 110 -6 0
-6 -111 7 0
-6 111 -7 0
6 -112 7 0
6 112 -7 0
-7 -8 0
7 8 0
-8 9 0
8 -9 0
-9 10 0
9 -10 0
-1 11 0
1 -11 0
-11 -2 12 0
-11 2 -12 0
11 -2 12 0
11 2 12 0
-12 -3 -13 0
-12 3 13 0
12 -3 -13 0
12 3 -13 0
-13 -4 14 0
-13 4 -14 0
13 -4 14 0
13 4 -14 0
-14 -5 15 0
-14 5 15 0
14 -5 -15 0
14 5 15 0
-15 -6 -137 16 0
-15 -6 137 -16 0
-15 6 -138 16 0
-15 6 138 -16 0
15 -6 -139 16 0
15 -6 139 -16 0
15 6 -140 16 0
15 6 140 -16 0
-16 -7 17 0
-16 7 -17 0
16 -7 17 0
16 7 -17 0
-17 -8 -145 18 0
-17 -8 145 -18 0
-17 8 -146 18 0
-17 8 146 -18 0
17 -8 -147 18 0
17 -8 147 -18 0
17 8 -148 18 0
17 8 148 -18 0
-18 -9 19 0
-18 9 -19 0
18 -9 19 0
18 9 19 0
-19 -10 20 0
-19 10 -20 0
19 -10 -20 0
19 10 -20 0
-11 21 0
11 -21 0
-21 -12 22 0
-21 12 22 0
21 -12 22 0
21 12 -22 0
-22 -13 -23 0
-22 13 -23 0
22 -13 23 0
22 13 -23 0
-23 -14 -167 24 0
-23 -14 167 -24 0
-23 14 -168 24 0
-23 14 168 -24 0
23 -14 -169 24 0
23 -14 169 -24 0
23 14 -170 24 0
23 14 170 -24 0
-24 -15 -25 0
-24 15 25 0
24 -15 25 0
24 15 -25 0
-25 -16 26 0
-25 16 -26 0
25 -16 26 0
25 16 26 0
-26 -17 27 0
-26 17 27 0
26 -17 27 0
26 17 -27 0
-27 -18 -183 28 0
-27 -18 183 -28 0
-27 18 -184 28 0
-27 18 184 -28 0
27 -18 -185 28 0
27 -18 185 -28 0
27 18 -186 28 0
27 18 186 -28 0
-28 -19 29 0
-28 19 -29 0
28 -19 29 0
28 19 -29 0
-29 -20 -30 0
-29 20 -30 0
29 -20 30 0
29 20 30 0
-21 31 0
21 -31 0
-31 -22 32 0
-31 22 -32 0
31 -22 -32 0
31 22 32 0
-32 -23 -33 0
-32 23 33 0
32 -23 33 0
32 23 33 0
-33 -24 -205 34 0
-33 -24 205 -34 0
-33 24 -206 34 0
-33 24 206 -34 0
33 -24 -207 34 0
33 -24 207 -34 0
33 24 -208 34 0
33 24 208 -34 0
-34 -25 -35 0
-34 25 -35 0
34 -25 -35 0
34 25 35 0
-35 -26 36 0
-35 26 36 0
35 -26 -36 0
35 26 36 0
-36 -27 -217 37 0
-36 -27 217 -37 0
-36 27 -218 37 0
-36 27 218 -37 0
36 -27 -219 37 0
36 -27 219 -37 0
36 27 -220 37 0
36 27 220 -37 0
-37 -28 -38 0
-37 28 38 0
37 -28 -38 0
37 28 -38 0
-38 -29 -39 0
-38 29 -39 0
38 -29 39 0
38 29 -39 0
-39 -30 -40 0
-39 30 40 0
39 -30 -40 0
39 30 -40 0
-31 -41 0
31 41 0
-41 -32 42 0
-41 32 -42 0
41 -32 -42 0
41 32 42 0
-42 -33 43 0
-42 33 -43 0
42 -33 43 0
42 33 -43 0
-43 -34 -44 0
-43 34 44 0
43 -34 -44 0
43 34 -44 0
-44 -35 45 0
-44 35 -45 0
44 -35 -45 0
44 35 -45 0
-45 -36 46 0
-45 36 46 0
45 -36 46 0
45 36 -46 0
-46 -37 -47 0
-46 37 -47 0
46 -37 -47 0
46 37 47 0
-47 -38 -48 0
-47 38 -48 0
47 -38 48 0
47 38 -48 0
-48 -39 -263 49 0
-48 -39 263 -49 0
-48 39 -264 49 0
-48 39 264 -49 0
48 -39 -265 49 0
48 -39 265 -49 0
48 39 -266 49 0
48 39 266 -49 0
-49 -40 -50 0
-49 40 50 0
49 -40 50 0
49 40 50 0
-41 -271 51 0
-41 271 -51 0
41 -272 51 0
41 272 -51 0
-51 -42 -273 52 0
-51 -42 273 -52 0
-51 42 -274 52 0
-51 42 274 -52 0
51 -42 -275 52 0
51 -42 275 -52 0
51 42 -276 52 0
51 42 276 -52 0
-52 -43 -53 0
-52 43 53 0
52 -43 53 0
52 43 -53 0
-53 -44 54 0
-53 44 54 0
53 -44 -54 0
53 44 -54 0
-54 -45 55 0
-54 45 -55 0
54 -45 55 0
54 45 -55 0
-55 -46 56 0
-55 46 56 0
55 -46 -56 0
55 46 -56 0
-56 -47 57 0
-56 47 57 0
56 -47 -57 0
56 47 57 0
-57 -48 -297 58 0
-57 -48 297 -58 0
-57 48 -298 58 0
-57 48 298 -58 0
57 -48 -299 58 0
57 -48 299 -58 0
57 48 -300 58 0
57 48 300 -58 0
-58 -49 -59 0
-58 49 59 0
58 -49 59 0
58 49 59 0
-59 -50 60 0
-59 50 60 0
59 -50 -60 0
59 50 -60 0
-51 -61 0
51 61 0
-61 -52 62 0
-61 52 62 0
61 -52 62 0
61 52 -62 0
-62 -53 -315 63 0
-62 -53 315 -63 0
-62 53 -316 63 0
-62 53 316 -63 0
62 -53 -317 63 0
62 -53 317 -63 0
62 53 -318 63 0
62 53 318 -63 0
-63 -54 -319 64 0
-63 -54 319 -64 0
-63 54 -320 64 0
-63 54 320 -64 0
63 -54 -321 64 0
63 -54 321 -64 0
63 54 -322 64 0
63 54 322 -64 0
-64 -55 65 0
-64 55 -65 0
64 -55 65 0
64 55 65 0
-65 -56 -327 66 0
-65 -56 327 -66 0
-65 56 -328 66 0
-65 56 328 -66 0
65 -56 -329 66 0
65 -56 329 -66 0
65 56 -330 66 0
65 56 330 -66 0
-66 -57 -67 0
-66 57 -67 0
66 -57 67 0
66 57 -67 0
-67 -58 -68 0
-67 58 68 0
67 -58 68 0
67 58 -68 0
-68 -59 -69 0
-68 59 69 0
68 -59 69 0
68 59 -69 0
-69 -60 70 0
-69 60 -70 0
69 -60 -70 0
69 60 70 0
-61 71 0
61 -71 0
-71 -62 -72 0
-71 62 72 0
71 -62 -72 0
71 62 -72 0
-72 -63 -353 73 0
-72 -63 353 -73 0
-72 63 -354 73 0
-72 63 354 -73 0
72 -63 -355 73 0
72 -63 355 -73 0
72 63 -356 73 0
72 63 356 -73 0
-73 -64 -74 0
-73 64 74 0
73 -64 -74 0
73 64 -74 0
-74 -65 75 0
-74 65 -75 0
74 -65 75 0
74 65 75 0
-75 -66 -365 76 0
-75 -66 365 -76 0
-75 66 -366 76 0
-75 66 366 -76 0
75 -66 -367 76 0
75 -66 367 -76 0
75 66 -368 76 0
75 66 368 -76 0
-76 -67 77 0
-76 67 77 0
76 -67 77 0
76 67 -77 0
-77 -68 -373 78 0
-77 -68 373 -78 0
-77 68 -374 78 0
-77 68 374 -78 0
77 -68 -375 78 0
77 -68 375 -78 0
77 68 -376 78 0
77 68 376 -78 0
-78 -69 79 0
-78 69 79 0
78 -69 79 0
78 69 -79 0
-79 -70 -80 0
-79 70 -80 0
79 -70 80 0
79 70 -80 0
-71 -385 81 0
-71 385 -81 0
71 -386 81 0
71 386 -81 0
-81 -72 82 0
-81 72 82 0
81 -72 82 0
81 72 -82 0
-82 -73 -391 83 0
-82 -73 391 -83 0
-82 73 -392 83 0
-82 73 392 -83 0
82 -73 -393 83 0
82 -73 393 -83 0
82 73 -394 83 0
82 73 394 -83 0
-83 -74 -395 84 0
-83 -74 395 -84 0
-83 74 -396 84 0
-83 74 396 -84 0
83 -74 -397 84 0
83 -74 397 -84 0
83 74 -398 84 0
83 74 398 -84 0
-84 -75 -399 85 0
-84 -75 399 -85 0
-84 75 -400 85 0
-84 75 400 -85 0
84 -75 -401 85 0
84 -75 401 -85 0
84 75 -402 85 0
84 75 402 -85 0
-85 -76 86 0
-85 76 86 0
85 -76 -86 0
85 76 86 0
-86 -77 87 0
-86 77 -87 0
86 -77 87 0
86 77 -87 0
-87 -78 88 0
-87 78 88 0
87 -78 -88 0
87 78 -88 0
-88 -79 -89 0
-88 79 89 0
88 -79 89 0
88 79 89 0
-89 -80 -90 0
-89 80 90 0
89 -80 90 0
89 80 -90 0
-81 91 0
81 -91 0
-91 -82 -92 0
-91 82 92 0
91 -82 92 0
91 82 92 0
-92 -83 -93 0
-92 83 93 0
92 -83 93 0
92 83 93 0
-93 -84 94 0
-93 84 94 0
93 -84 -94 0
93 84 -94 0
-94 -85 -95 0
-94 85 -95 0
94 -85 -95 0
94 85 95 0
-95 -86 -441 96 0
-95 -86 441 -96 0
-95 86 -442 96 0
-95 86 442 -96 0
95 -86 -443 96 0
95 -86 443 -96 0
95 86 -444 96 0
95 86 444 -96 0
-96 -87 97 0
-96 87 97 0
96 -87 -97 0
96 87 97 0
-97 -88 -98 0
-97 88 98 0
97 -88 98 0
97 88 -98 0
-98 -89 -99 0
-98 89 99 0
98 -89 -99 0
98 89 -99 0
-99 -90 -100 0
-99 90 100 0
99 -90 100 0
99 90 -100 0
100 0
