data/benchmarks/bayes/75-10-5-q.gr
p tw 460 517
7 17
75 399
67 68
99 100
67 77
84 395
8 9
8 18
40 50
14 168
41 271
41 42
63 317
73 74
41 51
25 34
77 373
18 147
73 83
14 15
14 24
74 75
36 219
74 84
4 105
15 16
66 327
83 398
47 48
15 25
49 265
47 57
59 68
84 399
48 49
48 58
76 367
80 90
15 137
52 275
81 82
33 42
81 91
86 444
28 183
54 321
22 23
84 93
22 32
66 75
83 393
55 56
7 16
55 65
58 67
40 49
48 300
68 376
24 208
73 82
18 146
32 41
14 23
65 74
83 397
27 218
47 56
75 402
6 15
21 22
21 31
24 167
76 366
80 89
39 48
54 55
52 274
54 64
62 315
82 391
54 320
87 88
87 97
83 392
28 29
72 355
28 38
3 103
88 89
88 98
48 263
29 30
61 62
61 71
2 3
2 12
62 63
37 217
96 443
94 95
3 4
6 140
71 386
35 36
35 45
95 96
75 365
36 37
68 69
27 217
68 78
65 329
74 396
58 299
69 70
78 375
69 79
34 207
17 145
54 63
13 22
43 44
54 319
43 53
27 185
87 96
46 55
72 354
76 77
28 37
76 86
23 169
85 400
79 88
95 441
24 170
20 29
2 11
6 112
96 442
63 354
51 272
53 62
71 385
6 139
35 44
53 318
73 394
9 10
86 95
57 297
9 19
68 77
3 106
27 36
65 328
74 395
33 205
42 43
58 298
42 52
78 374
34 206
60 69
75 76
37 220
75 85
51 276
16 17
16 26
27 184
64 322
56 327
49 50
49 59
66 368
23 168
85 399
16 138
42 276
82 83
5 110
82 92
23 24
23 33
83 84
6 111
63 353
51 271
18 183
8 148
24 25
56 57
56 66
53 317
2 104
73 393
57 58
89 90
89 99
30 40
58 297
95 444
78 373
39 265
63 321
31 32
34 205
34 43
64 65
64 321
5 6
67 76
97 98
57 300
66 367
8 17
33 208
16 137
42 275
14 167
5 109
63 316
82 91
6 110
36 218
8 147
73 356
74 83
56 65
15 24
53 316
49 264
73 392
84 398
89 98
48 57
63 64
63 73
63 320
39 264
4 5
4 14
77 376
86 443
22 31
37 38
37 47
4 108
66 330
55 64
70 80
66 366
29 39
84 402
11 12
48 299
11 21
42 274
68 375
5 108
15 140
63 315
24 207
62 72
44 45
18 145
44 54
3 13
28 186
36 217
8 146
73 355
83 396
36 46
96 97
49 263
18 19
75 401
18 28
84 397
76 365
10 20
14 170
52 273
63 319
77 375
86 442
85 86
83 391
4 107
66 329
88 97
77 78
29 38
77 87
48 298
68 374
15 139
24 206
62 71
62 318
51 52
3 12
28 185
51 61
82 394
73 354
83 395
36 45
75 400
48 266
69 78
7 112
10 19
41 272
25 26
25 35
43 52
75 368
17 18
17 27
72 353
4 106
66 328
27 220
76 85
50 60
77 86
24 169
76 368
48 297
68 373
17 148
96 441
83 93
52 276
24 205
62 317
6 138
24 34
28 184
54 322
82 393
84 85
84 94
9 18
57 67
3 105
65 327
48 265
58 59
58 68
42 51
90 100
7 111
31 41
91 92
37 219
75 84
51 275
32 33
32 42
16 25
64 74
27 183
75 367
5 15
65 66
17 26
65 75
49 58
27 219
23 167
6 7
6 16
74 398
98 99
50 59
24 168
39 40
39 49
23 32
17 147
83 92
62 316
72 73
6 137
24 33
72 82
82 392
2 103
56 330
57 66
72 356
3 104
48 264
85 402
30 39
95 443
90 99
96 444
37 218
63 356
51 274
18 186
64 73
64 320
75 366
38 39
5 14
38 48
57 299
65 330
74 397
33 207
71 72
71 81
58 300
78 376
12 13
12 22
34 208
17 146
6 109
13 14
45 46
13 23
45 55
72 81
81 386
53 315
27 186
46 47
73 391
78 79
46 56
56 329
78 88
19 20
23 170
19 29
79 80
85 401
16 140
79 89
63 72
95 442
39 263
52 53
20 30
4 13
52 62
63 355
53 54
51 273
18 185
53 63
37 46
85 95
26 27
64 319
26 36
86 87
38 47
86 96
70 79
57 298
66 365
84 401
27 28
27 37
33 206
42 273
5 107
12 21
60 70
44 53
1 2
1 11
8 145
93 94
45 54
81 385
18 27
56 328
78 87
84 396
19 28
16 139
14 169
63 318
77 374
18 148
52 61
86 441
18 184
36 220
85 94
49 266
59 60
26 35
59 69
84 400
92 93
15 138
33 34
39 266
63 322
33 43
34 35
66 67
34 44
73 353
66 76
83 394
7 8
